62
125
87	3
86	1
85	3
84	4
83	2
82	7
81	6
80	2
79	1
78	2
77	2
76	4
75	4
74	3
73	5
72	2
71	2
70	3
69	3
68	3
67	1
66	5
65	3
64	4
63	1
62	3
61	3
60	4
59	2
58	3
57	6
56	4
55	5
54	1
53	6
52	2
51	3
50	1
49	2
48	2
47	10
46	2
45	3
44	3
43	4
42	2
41	7
40	3
39	2
38	6
36	2
35	4
34	4
33	3
32	4
31	3
30	4
29	2
28	3
27	3
26	1
25	2
